(set-info :source |printed by MathSAT|)
(declare-fun |.x{107}| () Int)
(declare-fun |.y{7}| () Int)
(declare-fun |.y{6}| () Int)
(declare-fun |.y{8}| () Int)
(declare-fun |.x{108}| () (Array Int Int))
(declare-fun |.y{9}| () (Array Int Int))
(declare-fun |.x{106}| () Int)
(declare-fun |.y{10}| () Int)
(declare-fun |.x{103}| () Int)
(declare-fun |.y{11}| () Int)
(declare-fun |.loc{4}| () Bool)
(declare-fun |.loc{7}| () Bool)
(declare-fun |.loc{5}| () Bool)
(declare-fun |.loc{8}| () Bool)
(declare-fun |.loc{6}| () Bool)
(declare-fun |.loc{9}| () Bool)
(declare-fun |.x{109}| () Int)
(define-fun .def_18 () Bool (! |.loc{4}| :next |.loc{7}|))
(define-fun .def_61 () Bool (not .def_18))
(define-fun .def_20 () Bool (! |.loc{5}| :next |.loc{8}|))
(define-fun .def_38 () Bool (not .def_20))
(define-fun .def_151 () Bool (and .def_38 .def_61))
(define-fun .def_22 () Bool (! |.loc{6}| :next |.loc{9}|))
(define-fun .def_149 () Bool (not .def_22))
(define-fun .def_152 () Bool (! (and .def_149 .def_151) :init true))
(define-fun .def_12 () (Array Int Int) (! |.x{108}| :next |.y{9}|))
(define-fun .def_101 () Int (select .def_12 |.x{109}|))
(define-fun .def_102 () Bool (= .def_101 43))
(define-fun .def_133 () Bool (not .def_102))
(define-fun .def_8 () Int (! |.x{107}| :next |.y{7}|))
(define-fun .def_29 () Bool (<= .def_8 0))
(define-fun .def_30 () Bool (not .def_29))
(define-fun .def_31 () Bool (and .def_18 .def_30))
(define-fun .def_134 () Bool (and .def_31 .def_133))
(define-fun .def_135 () Bool (and .def_133 .def_134))
(define-fun .def_41 () Int (* (- 1) |.x{109}|))
(define-fun .def_14 () Int (! |.x{106}| :next |.y{10}|))
(define-fun .def_114 () Int (+ .def_14 .def_41))
(define-fun .def_115 () Int (+ .def_8 .def_114))
(define-fun .def_116 () Bool (= .def_115 0))
(define-fun .def_136 () Bool (and .def_116 .def_135))
(define-fun .def_137 () Bool (and |.loc{9}| .def_136))
(define-fun .def_87 () Bool (not |.loc{7}|))
(define-fun .def_138 () Bool (and .def_87 .def_137))
(define-fun .def_51 () Bool (not |.loc{8}|))
(define-fun .def_139 () Bool (and .def_51 .def_138))
(define-fun .def_16 () Int (! |.x{103}| :next |.y{11}|))
(define-fun .def_120 () Bool (<= .def_16 .def_14))
(define-fun .def_121 () Bool (not .def_120))
(define-fun .def_140 () Bool (and .def_121 .def_139))
(define-fun .def_57 () Bool (<= |.x{109}| 0))
(define-fun .def_58 () Bool (not .def_57))
(define-fun .def_59 () Bool (or .def_29 .def_58))
(define-fun .def_141 () Bool (and .def_59 .def_140))
(define-fun .def_131 () Bool (= .def_14 |.y{11}|))
(define-fun .def_124 () Bool (= |.y{10}| 0))
(define-fun .def_33 () Bool (not |.loc{9}|))
(define-fun .def_62 () Bool (and .def_33 .def_61))
(define-fun .def_125 () Bool (and .def_62 .def_124))
(define-fun .def_10 () Int (! |.y{6}| :next |.y{8}|))
(define-fun .def_35 () Bool (<= .def_14 .def_10))
(define-fun .def_126 () Bool (and .def_35 .def_125))
(define-fun .def_46 () Bool (= .def_8 |.y{7}|))
(define-fun .def_127 () Bool (and .def_46 .def_126))
(define-fun .def_95 () Bool (= .def_12 |.y{9}|))
(define-fun .def_128 () Bool (and .def_95 .def_127))
(define-fun .def_129 () Bool (and |.loc{7}| .def_128))
(define-fun .def_130 () Bool (and |.loc{8}| .def_129))
(define-fun .def_132 () Bool (and .def_130 .def_131))
(define-fun .def_142 () Bool (or .def_132 .def_141))
(define-fun .def_118 () Bool (= .def_16 |.y{11}|))
(define-fun .def_108 () Int (* (- 1) |.y{10}|))
(define-fun .def_109 () Int (+ .def_14 .def_108))
(define-fun .def_110 () Bool (= .def_109 (- 1)))
(define-fun .def_100 () Bool (and .def_31 .def_33))
(define-fun .def_103 () Bool (and .def_100 .def_102))
(define-fun .def_104 () Bool (and .def_46 .def_103))
(define-fun .def_105 () Bool (and .def_95 .def_104))
(define-fun .def_106 () Bool (and |.loc{7}| .def_105))
(define-fun .def_107 () Bool (and |.loc{8}| .def_106))
(define-fun .def_111 () Bool (and .def_107 .def_110))
(define-fun .def_117 () Bool (and .def_111 .def_116))
(define-fun .def_119 () Bool (and .def_117 .def_118))
(define-fun .def_122 () Bool (and .def_119 .def_121))
(define-fun .def_123 () Bool (and .def_59 .def_122))
(define-fun .def_143 () Bool (or .def_123 .def_142))
(define-fun .def_144 () Bool (and .def_20 .def_143))
(define-fun .def_90 () Bool (and .def_18 .def_33))
(define-fun .def_91 () Bool (and .def_38 .def_90))
(define-fun .def_92 () Bool (and .def_35 .def_91))
(define-fun .def_67 () Bool (= |.y{8}| 0))
(define-fun .def_93 () Bool (and .def_67 .def_92))
(define-fun .def_94 () Bool (and .def_46 .def_93))
(define-fun .def_96 () Bool (and .def_94 .def_95))
(define-fun .def_49 () Bool (= .def_14 |.y{10}|))
(define-fun .def_97 () Bool (and .def_49 .def_96))
(define-fun .def_98 () Bool (and |.loc{8}| .def_97))
(define-fun .def_99 () Bool (and .def_87 .def_98))
(define-fun .def_145 () Bool (or .def_99 .def_144))
(define-fun .def_78 () (Array Int Int) (store .def_12 |.x{109}| 43))
(define-fun .def_79 () Bool (= |.y{9}| .def_78))
(define-fun .def_25 () Int (* (- 1) |.y{8}|))
(define-fun .def_26 () Int (+ .def_10 .def_25))
(define-fun .def_27 () Bool (= .def_26 (- 1)))
(define-fun .def_74 () Bool (and .def_27 .def_30))
(define-fun .def_75 () Bool (and .def_33 .def_74))
(define-fun .def_76 () Bool (and .def_20 .def_75))
(define-fun .def_80 () Bool (and .def_76 .def_79))
(define-fun .def_36 () Bool (not .def_35))
(define-fun .def_81 () Bool (and .def_36 .def_80))
(define-fun .def_82 () Bool (and .def_61 .def_81))
(define-fun .def_42 () Int (+ .def_10 .def_41))
(define-fun .def_43 () Int (+ .def_8 .def_42))
(define-fun .def_44 () Bool (= .def_43 0))
(define-fun .def_83 () Bool (and .def_44 .def_82))
(define-fun .def_84 () Bool (and .def_46 .def_83))
(define-fun .def_85 () Bool (and .def_49 .def_84))
(define-fun .def_86 () Bool (and |.loc{8}| .def_85))
(define-fun .def_88 () Bool (and .def_86 .def_87))
(define-fun .def_89 () Bool (and .def_59 .def_88))
(define-fun .def_146 () Bool (or .def_89 .def_145))
(define-fun .def_69 () Bool (<= |.y{10}| 0))
(define-fun .def_70 () Bool (not .def_69))
(define-fun .def_64 () Bool (<= |.y{7}| 0))
(define-fun .def_65 () Bool (not .def_64))
(define-fun .def_63 () Bool (and .def_38 .def_62))
(define-fun .def_66 () Bool (and .def_63 .def_65))
(define-fun .def_68 () Bool (and .def_66 .def_67))
(define-fun .def_71 () Bool (and .def_68 .def_70))
(define-fun .def_72 () Bool (and |.loc{7}| .def_71))
(define-fun .def_73 () Bool (and .def_51 .def_72))
(define-fun .def_147 () Bool (or .def_73 .def_146))
(define-fun .def_54 () (Array Int Int) (store .def_12 |.x{109}| 42))
(define-fun .def_55 () Bool (= |.y{9}| .def_54))
(define-fun .def_32 () Bool (and .def_27 .def_31))
(define-fun .def_34 () Bool (and .def_32 .def_33))
(define-fun .def_37 () Bool (and .def_34 .def_36))
(define-fun .def_39 () Bool (and .def_37 .def_38))
(define-fun .def_45 () Bool (and .def_39 .def_44))
(define-fun .def_47 () Bool (and .def_45 .def_46))
(define-fun .def_48 () Bool (and |.loc{7}| .def_47))
(define-fun .def_50 () Bool (and .def_48 .def_49))
(define-fun .def_52 () Bool (and .def_50 .def_51))
(define-fun .def_56 () Bool (and .def_52 .def_55))
(define-fun .def_60 () Bool (and .def_56 .def_59))
(define-fun .def_148 () Bool (or .def_60 .def_147))
(define-fun .def_150 () Bool (! (and .def_148 .def_149) :trans true))
(define-fun .def_153 () Bool (and .def_22 .def_151))
(define-fun .def_154 () Bool (! (not .def_153) :invar-property 0))
(assert true)
